     Program PWSCF v.7.1 starts on 31May2023 at 13:51:25

     Waiting for input...
     Reading input from standard input

     Current dimensions of program PWSCF are:
     Max number of different atomic species (ntypx) = 10
     Max number of k-points (npk) =  40000
     Max angular momentum in pseudopotentials (lmaxx) =  4

     R & G space division:  proc/nbgrp/npool/nimage =      20
     Subspace diagonalization in iterative solution of the eigenvalue problem:
     a serial algorithm will be used

     Using Slab Decomposition

     bravais-lattice index     =            2
     lattice parameter (alat)  =      10.2620  a.u.
     unit-cell volume          =     270.1694 (a.u.)^3
     number of atoms/cell      =            2
     number of atomic types    =            1
     number of electrons       =         8.00
     number of Kohn-Sham states=            4
     kinetic-energy cutoff     =      80.0000  Ry
     charge density cutoff     =     320.0000  Ry
     scf convergence threshold =      1.0E-10
     mixing beta               =       0.1500
     number of iterations used =            8  plain     mixing
     energy convergence thresh.=      1.0E-06
     force convergence thresh. =      1.0E-05
     press convergence thresh. =      5.0E-02
     Exchange-correlation= SLA-PZ-NOGX-NOGC
                           (   1   1   0   0   0   0   0)
     nstep                     =          100

     celldm(1)=  10.262001  celldm(2)=   0.000000  celldm(3)=   0.000000
     celldm(4)=   0.000000  celldm(5)=   0.000000  celldm(6)=   0.000000

     crystal axes: (cart. coord. in units of alat)
               a(1) = (  -0.500000   0.000000   0.500000 )
               a(2) = (   0.000000   0.500000   0.500000 )
               a(3) = (  -0.500000   0.500000   0.000000 )

     reciprocal axes: (cart. coord. in units 2 pi/alat)
               b(1) = ( -1.000000 -1.000000  1.000000 )
               b(2) = (  1.000000  1.000000  1.000000 )
               b(3) = ( -1.000000  1.000000 -1.000000 )

     PseudoPot. # 1 for Si read from file:
     ../pseudo/Si.pz-hgh.UPF
     MD5 check sum: cb84f9316d534d44e00c22e249e735ab
     Pseudo is Norm-conserving, Zval =  4.0
     Generated in analytical, separable form
     Using radial grid of 1141 points,  3 beta functions with:
                l(1) =   0
                l(2) =   0
                l(3) =   1

     atomic species   valence    mass     pseudopotential
        Si             4.00    28.08550     Si( 1.00)

     48 Sym. Ops., with inversion, found (24 have fractional translation)

   Cartesian axes

     site n.     atom                  positions (alat units)
         1           Si  tau(   1) = (   0.0000000   0.0000000   0.0000000  )
         2           Si  tau(   2) = (  -0.7500000   0.7500000   0.7500000  )

     number of k points=    60
                       cart. coord. in units 2pi/alat
        k(    1) = (  -0.0625000   0.0625000   0.0625000), wk =   0.0078125
        k(    2) = (  -0.1875000   0.1875000  -0.0625000), wk =   0.0234375
        k(    3) = (  -0.3125000   0.3125000  -0.1875000), wk =   0.0234375
        k(    4) = (  -0.4375000   0.4375000  -0.3125000), wk =   0.0234375
        k(    5) = (   0.4375000  -0.4375000   0.5625000), wk =   0.0234375
        k(    6) = (   0.3125000  -0.3125000   0.4375000), wk =   0.0234375
        k(    7) = (   0.1875000  -0.1875000   0.3125000), wk =   0.0234375
        k(    8) = (   0.0625000  -0.0625000   0.1875000), wk =   0.0234375
        k(    9) = (  -0.0625000   0.3125000   0.0625000), wk =   0.0234375
        k(   10) = (  -0.1875000   0.4375000  -0.0625000), wk =   0.0468750
        k(   11) = (  -0.3125000   0.5625000  -0.1875000), wk =   0.0468750
        k(   12) = (   0.5625000  -0.3125000   0.6875000), wk =   0.0468750
        k(   13) = (   0.4375000  -0.1875000   0.5625000), wk =   0.0468750
        k(   14) = (   0.3125000  -0.0625000   0.4375000), wk =   0.0468750
        k(   15) = (   0.1875000   0.0625000   0.3125000), wk =   0.0468750
        k(   16) = (  -0.0625000   0.5625000   0.0625000), wk =   0.0234375
        k(   17) = (  -0.1875000   0.6875000  -0.0625000), wk =   0.0468750
        k(   18) = (   0.6875000  -0.1875000   0.8125000), wk =   0.0468750
        k(   19) = (   0.5625000  -0.0625000   0.6875000), wk =   0.0468750
        k(   20) = (   0.4375000   0.0625000   0.5625000), wk =   0.0468750
        k(   21) = (   0.3125000   0.1875000   0.4375000), wk =   0.0468750
        k(   22) = (  -0.0625000   0.8125000   0.0625000), wk =   0.0234375
        k(   23) = (   0.8125000  -0.0625000   0.9375000), wk =   0.0468750
        k(   24) = (   0.6875000   0.0625000   0.8125000), wk =   0.0468750
        k(   25) = (   0.5625000   0.1875000   0.6875000), wk =   0.0468750
        k(   26) = (   0.4375000   0.3125000   0.5625000), wk =   0.0468750
        k(   27) = (  -0.0625000  -0.9375000   0.0625000), wk =   0.0234375
        k(   28) = (  -0.1875000  -0.8125000  -0.0625000), wk =   0.0468750
        k(   29) = (  -0.3125000  -0.6875000  -0.1875000), wk =   0.0468750
        k(   30) = (  -0.0625000  -0.6875000   0.0625000), wk =   0.0234375
        k(   31) = (  -0.1875000  -0.5625000  -0.0625000), wk =   0.0468750
        k(   32) = (  -0.0625000  -0.4375000   0.0625000), wk =   0.0234375
        k(   33) = (  -0.1875000   0.1875000   0.1875000), wk =   0.0078125
        k(   34) = (  -0.3125000   0.3125000   0.0625000), wk =   0.0234375
        k(   35) = (  -0.4375000   0.4375000  -0.0625000), wk =   0.0234375
        k(   36) = (   0.4375000  -0.4375000   0.8125000), wk =   0.0234375
        k(   37) = (   0.3125000  -0.3125000   0.6875000), wk =   0.0234375
        k(   38) = (   0.1875000  -0.1875000   0.5625000), wk =   0.0234375
        k(   39) = (  -0.1875000   0.4375000   0.1875000), wk =   0.0234375
        k(   40) = (  -0.3125000   0.5625000   0.0625000), wk =   0.0468750
        k(   41) = (   0.5625000  -0.3125000   0.9375000), wk =   0.0468750
        k(   42) = (   0.4375000  -0.1875000   0.8125000), wk =   0.0468750
        k(   43) = (   0.3125000  -0.0625000   0.6875000), wk =   0.0468750
        k(   44) = (  -0.1875000   0.6875000   0.1875000), wk =   0.0234375
        k(   45) = (   0.6875000  -0.1875000   1.0625000), wk =   0.0468750
        k(   46) = (   0.5625000  -0.0625000   0.9375000), wk =   0.0468750
        k(   47) = (   0.4375000   0.0625000   0.8125000), wk =   0.0468750
        k(   48) = (  -0.1875000  -1.0625000   0.1875000), wk =   0.0234375
        k(   49) = (  -0.3125000  -0.9375000   0.0625000), wk =   0.0468750
        k(   50) = (  -0.1875000  -0.8125000   0.1875000), wk =   0.0234375
        k(   51) = (  -0.3125000   0.3125000   0.3125000), wk =   0.0078125
        k(   52) = (  -0.4375000   0.4375000   0.1875000), wk =   0.0234375
        k(   53) = (   0.4375000  -0.4375000   1.0625000), wk =   0.0234375
        k(   54) = (   0.3125000  -0.3125000   0.9375000), wk =   0.0234375
        k(   55) = (  -0.3125000   0.5625000   0.3125000), wk =   0.0234375
        k(   56) = (   0.5625000  -0.3125000   1.1875000), wk =   0.0468750
        k(   57) = (   0.4375000  -0.1875000   1.0625000), wk =   0.0468750
        k(   58) = (  -0.3125000  -1.1875000   0.3125000), wk =   0.0234375
        k(   59) = (  -0.4375000   0.4375000   0.4375000), wk =   0.0078125
        k(   60) = (   0.4375000  -0.4375000   1.3125000), wk =   0.0234375

     Initial potential from superposition of free atoms

     Starting from uniform charge
     Starting wfcs are random

     Self-consistent Calculation

     iteration #  1     ecut=    80.00 Ry     beta= 0.15
     Davidson diagonalization with overlap
     ethr =  1.00E-02,  avg # of iterations =  8.1

     total energy              =     -16.44554612 Ry
     estimated scf accuracy    <       1.87874106 Ry

[...]

     negative rho (up, down):  1.068E-04 0.000E+00

[...]

     End of self-consistent calculation

          k =-0.0625 0.0625 0.0625 (  3266 PWs)   bands (ev):

    -5.8916   5.4782   5.9326   5.9326

[...]

          k = 0.4375-0.4375 0.5625 (  3259 PWs)   bands (ev):

[...]

     highest occupied level (ev):     5.9326

!    total energy              =     -15.87465430 Ry
     estimated scf accuracy    <          1.6E-12 Ry

     The total energy is the sum of the following terms:
     one-electron contribution =       4.62983502 Ry
     hartree contribution      =       1.09422952 Ry
     xc contribution           =      -4.80106510 Ry
     ewald contribution        =     -16.79765375 Ry

     convergence has been achieved in  26 iterations

     Computing stress (Cartesian axis) and pressure

          total   stress  (Ry/bohr**3)                   (kbar)     P=      -24.68
  -0.00016779  -0.00000000  -0.00000000          -24.68       -0.00       -0.00
  -0.00000000  -0.00016779   0.00000000           -0.00      -24.68        0.00
  -0.00000000   0.00000000  -0.00016779           -0.00        0.00      -24.68

     BFGS Geometry Optimization
     Energy error            =      0.0E+00 Ry
     Gradient error          =      0.0E+00 Ry/Bohr
     Cell gradient error     =      2.5E+01 kbar

     number of scf cycles    =   1
     number of bfgs steps    =   0

     enthalpy           new  =     -15.8746543017 Ry

     new trust radius        =       0.0137893245 bohr
ibrav =      2
 celldm(1) =     10.21895545
Input lattice vectors:
    -0.49790268     0.00000000     0.49790268
    -0.00000000     0.49790268     0.49790268
    -0.49790268     0.49790268     0.00000000
New lattice vectors in INITIAL alat:
    -0.49790268     0.00000000     0.49790268
     0.00000000     0.49790268     0.49790268
    -0.49790268     0.49790268     0.00000000
New lattice vectors in NEW alat (for information only):
    -0.50000000     0.00000000     0.50000000
     0.00000000     0.50000000     0.50000000
    -0.50000000     0.50000000     0.00000000
Discrepancy in bohr =     0.000000    0.000000    0.000000
     new conv_thr            =            1.0E-10 Ry

     new unit-cell volume =    266.78384 a.u.^3 (    39.53329 Ang^3 )
     density =      2.35938 g/cm^3

CELL_PARAMETERS (alat= 10.26200087)
  -0.497902679   0.000000000   0.497902679
   0.000000000   0.497902679   0.497902679
  -0.497902679   0.497902679   0.000000000

ATOMIC_POSITIONS (crystal)
Si            0.0000000000        0.0000000000        0.0000000000    0   0   0
Si            0.7500000000        0.7500000000        0.7500000000    0   0   0

     Writing config-only to output data dir ./work/Si.save/
     NEW-OLD atomic charge density approx. for the potential

[...]

     Energy error            =      4.4E-04 Ry
     Gradient error          =      0.0E+00 Ry/Bohr
     Cell gradient error     =      1.4E+01 kbar

[...]

     enthalpy           old  =     -15.8746543017 Ry
     enthalpy           new  =     -15.8750959319 Ry

     CASE: enthalpy          _new < enthalpy          _old

[...]

     Energy error            =      1.8E-04 Ry
     Gradient error          =      0.0E+00 Ry/Bohr
     Cell gradient error     =      6.3E-01 kbar

     number of scf cycles    =   3
     number of bfgs steps    =   2

     enthalpy           old  =     -15.8750959319 Ry
     enthalpy           new  =     -15.8752753868 Ry

     CASE: enthalpy          _new < enthalpy          _old

     new trust radius        =       0.0007245165 bohr
ibrav =      2
 celldm(1) =     10.16961718
Input lattice vectors:
    -0.49549875     0.00000000     0.49549875
    -0.00000000     0.49549875     0.49549875
    -0.49549875     0.49549875     0.00000000
New lattice vectors in INITIAL alat:
    -0.49549875     0.00000000     0.49549875
     0.00000000     0.49549875     0.49549875
    -0.49549875     0.49549875     0.00000000
New lattice vectors in NEW alat (for information only):
    -0.50000000     0.00000000     0.50000000
     0.00000000     0.50000000     0.50000000
    -0.50000000     0.50000000     0.00000000
Discrepancy in bohr =     0.000000    0.000000    0.000000
     new conv_thr            =            1.0E-12 Ry

     new unit-cell volume =    262.93828 a.u.^3 (    38.96343 Ang^3 )
     density =      2.39389 g/cm^3

[...]

ATOMIC_POSITIONS (crystal)
Si            0.0000000000        0.0000000000        0.0000000000    0   0   0
Si            0.7500000000        0.7500000000        0.7500000000    0   0   0

     Writing config-only to output data dir ./work/Si.save/
     NEW-OLD atomic charge density approx. for the potential

[...]

     Threshold (ethr) on eigenvalues was too large:
     Diagonalizing with lowered threshold

     Davidson diagonalization with overlap
     ethr =  3.90E-09,  avg # of iterations =  2.6

[...]

     Energy error            =      3.7E-07 Ry
     Gradient error          =      0.0E+00 Ry/Bohr
     Cell gradient error     =      1.5E-02 kbar
ibrav =      2
 celldm(1) =     10.16961718
Input lattice vectors:
    -0.49549875     0.00000000     0.49549875
     0.00000000     0.49549875     0.49549875
    -0.49549875     0.49549875     0.00000000
New lattice vectors in INITIAL alat:
    -0.49549875     0.00000000     0.49549875
     0.00000000     0.49549875     0.49549875
    -0.49549875     0.49549875     0.00000000
New lattice vectors in NEW alat (for information only):
    -0.50000000     0.00000000     0.50000000
     0.00000000     0.50000000     0.50000000
    -0.50000000     0.50000000     0.00000000
Discrepancy in bohr =     0.000000    0.000000    0.000000

     bfgs converged in   4 scf cycles and   3 bfgs steps
     (criteria: energy <  1.0E-06 Ry, force <  1.0E-05 Ry/Bohr, cell <  5.0E-02 kbar)

     End of BFGS Geometry Optimization

     Final enthalpy           =     -15.8752757562 Ry

     File ./work/Si.bfgs deleted, as requested
Begin final coordinates
     new unit-cell volume =    262.93828 a.u.^3 (    38.96343 Ang^3 )
     density =      2.39389 g/cm^3

CELL_PARAMETERS (alat= 10.26200087)
  -0.495498749   0.000000000   0.495498749
   0.000000000   0.495498749   0.495498749
  -0.495498749   0.495498749   0.000000000

ATOMIC_POSITIONS (crystal)
Si            0.0000000000        0.0000000000        0.0000000000    0   0   0
Si            0.7500000000        0.7500000000        0.7500000000    0   0   0
End final coordinates

     Writing config-only to output data dir ./work/Si.save/

     Final scf calculation at the relaxed structure.
     The G-vectors are recalculated for the final unit cell
     Results may differ from those at the preceding step.

     Using Slab Decomposition

     bravais-lattice index     =            2
     lattice parameter (alat)  =      10.2620  a.u.
     unit-cell volume          =     262.9383 (a.u.)^3
     number of atoms/cell      =            2
     number of atomic types    =            1
     number of electrons       =         8.00
     number of Kohn-Sham states=            4
     kinetic-energy cutoff     =      80.0000  Ry
     charge density cutoff     =     320.0000  Ry
     scf convergence threshold =      1.0E-12
     mixing beta               =       0.1500
     number of iterations used =            8  plain     mixing
     press convergence thresh. =      5.0E-02
     Exchange-correlation= SLA-PZ-NOGX-NOGC
                           (   1   1   0   0   0   0   0)

     celldm(1)=  10.262001  celldm(2)=   0.000000  celldm(3)=   0.000000
     celldm(4)=   0.000000  celldm(5)=   0.000000  celldm(6)=   0.000000

     crystal axes: (cart. coord. in units of alat)
               a(1) = (  -0.495499   0.000000   0.495499 )
               a(2) = (   0.000000   0.495499   0.495499 )
               a(3) = (  -0.495499   0.495499   0.000000 )

     reciprocal axes: (cart. coord. in units 2 pi/alat)
               b(1) = ( -1.009084 -1.009084  1.009084 )
               b(2) = (  1.009084  1.009084  1.009084 )
               b(3) = ( -1.009084  1.009084 -1.009084 )

     PseudoPot. # 1 for Si read from file:
     ../pseudo/Si.pz-hgh.UPF
     MD5 check sum: cb84f9316d534d44e00c22e249e735ab
     Pseudo is Norm-conserving, Zval =  4.0
     Generated in analytical, separable form
     Using radial grid of 1141 points,  3 beta functions with:
                l(1) =   0
                l(2) =   0
                l(3) =   1

     atomic species   valence    mass     pseudopotential
        Si             4.00    28.08550     Si( 1.00)

     48 Sym. Ops., with inversion, found (24 have fractional translation)

   Cartesian axes

     site n.     atom                  positions (alat units)
         1           Si  tau(   1) = (   0.0000000   0.0000000   0.0000000  )
         2           Si  tau(   2) = (  -0.7432481   0.7432481   0.7432481  )

     number of k points=    60
                       cart. coord. in units 2pi/alat
        k(    1) = (  -0.0630678   0.0630678   0.0630678), wk =   0.0078125
        k(    2) = (  -0.1892033   0.1892033  -0.0630678), wk =   0.0234375
        k(    3) = (  -0.3153388   0.3153388  -0.1892033), wk =   0.0234375
        k(    4) = (  -0.4414744   0.4414744  -0.3153388), wk =   0.0234375
        k(    5) = (   0.4414744  -0.4414744   0.5676099), wk =   0.0234375
        k(    6) = (   0.3153388  -0.3153388   0.4414744), wk =   0.0234375
        k(    7) = (   0.1892033  -0.1892033   0.3153388), wk =   0.0234375
        k(    8) = (   0.0630678  -0.0630678   0.1892033), wk =   0.0234375
        k(    9) = (  -0.0630678   0.3153388   0.0630678), wk =   0.0234375
        k(   10) = (  -0.1892033   0.4414744  -0.0630678), wk =   0.0468750
        k(   11) = (  -0.3153388   0.5676099  -0.1892033), wk =   0.0468750
        k(   12) = (   0.5676099  -0.3153388   0.6937454), wk =   0.0468750
        k(   13) = (   0.4414744  -0.1892033   0.5676099), wk =   0.0468750
        k(   14) = (   0.3153388  -0.0630678   0.4414744), wk =   0.0468750
        k(   15) = (   0.1892033   0.0630678   0.3153388), wk =   0.0468750
        k(   16) = (  -0.0630678   0.5676099   0.0630678), wk =   0.0234375
        k(   17) = (  -0.1892033   0.6937454  -0.0630678), wk =   0.0468750
        k(   18) = (   0.6937454  -0.1892033   0.8198810), wk =   0.0468750
        k(   19) = (   0.5676099  -0.0630678   0.6937454), wk =   0.0468750
        k(   20) = (   0.4414744   0.0630678   0.5676099), wk =   0.0468750
        k(   21) = (   0.3153388   0.1892033   0.4414744), wk =   0.0468750
        k(   22) = (  -0.0630678   0.8198810   0.0630678), wk =   0.0234375
        k(   23) = (   0.8198810  -0.0630678   0.9460165), wk =   0.0468750
        k(   24) = (   0.6937454   0.0630678   0.8198810), wk =   0.0468750
        k(   25) = (   0.5676099   0.1892033   0.6937454), wk =   0.0468750
        k(   26) = (   0.4414744   0.3153388   0.5676099), wk =   0.0468750
        k(   27) = (  -0.0630678  -0.9460165   0.0630678), wk =   0.0234375
        k(   28) = (  -0.1892033  -0.8198810  -0.0630678), wk =   0.0468750
        k(   29) = (  -0.3153388  -0.6937454  -0.1892033), wk =   0.0468750
        k(   30) = (  -0.0630678  -0.6937454   0.0630678), wk =   0.0234375
        k(   31) = (  -0.1892033  -0.5676099  -0.0630678), wk =   0.0468750
        k(   32) = (  -0.0630678  -0.4414744   0.0630678), wk =   0.0234375
        k(   33) = (  -0.1892033   0.1892033   0.1892033), wk =   0.0078125
        k(   34) = (  -0.3153388   0.3153388   0.0630678), wk =   0.0234375
        k(   35) = (  -0.4414744   0.4414744  -0.0630678), wk =   0.0234375
        k(   36) = (   0.4414744  -0.4414744   0.8198810), wk =   0.0234375
        k(   37) = (   0.3153388  -0.3153388   0.6937454), wk =   0.0234375
        k(   38) = (   0.1892033  -0.1892033   0.5676099), wk =   0.0234375
        k(   39) = (  -0.1892033   0.4414744   0.1892033), wk =   0.0234375
        k(   40) = (  -0.3153388   0.5676099   0.0630678), wk =   0.0468750
        k(   41) = (   0.5676099  -0.3153388   0.9460165), wk =   0.0468750
        k(   42) = (   0.4414744  -0.1892033   0.8198810), wk =   0.0468750
        k(   43) = (   0.3153388  -0.0630678   0.6937454), wk =   0.0468750
        k(   44) = (  -0.1892033   0.6937454   0.1892033), wk =   0.0234375
        k(   45) = (   0.6937454  -0.1892033   1.0721521), wk =   0.0468750
        k(   46) = (   0.5676099  -0.0630678   0.9460165), wk =   0.0468750
        k(   47) = (   0.4414744   0.0630678   0.8198810), wk =   0.0468750
        k(   48) = (  -0.1892033  -1.0721521   0.1892033), wk =   0.0234375
        k(   49) = (  -0.3153388  -0.9460165   0.0630678), wk =   0.0468750
        k(   50) = (  -0.1892033  -0.8198810   0.1892033), wk =   0.0234375
        k(   51) = (  -0.3153388   0.3153388   0.3153388), wk =   0.0078125
        k(   52) = (  -0.4414744   0.4414744   0.1892033), wk =   0.0234375
        k(   53) = (   0.4414744  -0.4414744   1.0721521), wk =   0.0234375
        k(   54) = (   0.3153388  -0.3153388   0.9460165), wk =   0.0234375
        k(   55) = (  -0.3153388   0.5676099   0.3153388), wk =   0.0234375
        k(   56) = (   0.5676099  -0.3153388   1.1982876), wk =   0.0468750
        k(   57) = (   0.4414744  -0.1892033   1.0721521), wk =   0.0468750
        k(   58) = (  -0.3153388  -1.1982876   0.3153388), wk =   0.0234375
        k(   59) = (  -0.4414744   0.4414744   0.4414744), wk =   0.0078125
        k(   60) = (   0.4414744  -0.4414744   1.3244231), wk =   0.0234375

     Initial potential from superposition of free atoms

     Starting from uniform charge
     Starting wfcs are random

     Self-consistent Calculation

     iteration #  1     ecut=    80.00 Ry     beta= 0.15
     Davidson diagonalization with overlap
     c_bands:  3 eigenvalues not converged
     c_bands:  2 eigenvalues not converged
     c_bands:  3 eigenvalues not converged
     c_bands:  3 eigenvalues not converged
     c_bands:  2 eigenvalues not converged
     c_bands:  2 eigenvalues not converged
     c_bands:  1 eigenvalues not converged
     c_bands:  1 eigenvalues not converged
     c_bands:  1 eigenvalues not converged
     ethr =  1.00E-06,  avg # of iterations = 16.9

[...]

     negative rho (up, down):  4.315E-07 0.000E+00

[...]

     total energy              =     -15.87527433 Ry
     estimated scf accuracy    <          9.8E-11 Ry

     iteration # 26     ecut=    80.00 Ry     beta= 0.15
     Davidson diagonalization with overlap
     ethr =  5.99E-13,  avg # of iterations =  2.0

     End of self-consistent calculation

[...]

          k =-0.4415 0.4415 0.4415 (  3178 PWs)   bands (ev):

[...]

          k = 0.4415-0.4415 1.3244 (  3177 PWs)   bands (ev):

    -3.2842  -0.6799   3.8382   4.8293

     highest occupied level (ev):     6.2129

!    total energy              =     -15.87527433 Ry
     estimated scf accuracy    <          6.1E-13 Ry

     The total energy is the sum of the following terms:
     one-electron contribution =       4.83379610 Ry
     hartree contribution      =       1.07172067 Ry
     xc contribution           =      -4.83054269 Ry
     ewald contribution        =     -16.95024841 Ry

     convergence has been achieved in  26 iterations

     Computing stress (Cartesian axis) and pressure

          total   stress  (Ry/bohr**3)                   (kbar)     P=       -0.02
  -0.00000011   0.00000000  -0.00000000           -0.02        0.00       -0.00
   0.00000000  -0.00000011  -0.00000000            0.00       -0.02       -0.00
  -0.00000000  -0.00000000  -0.00000011           -0.00       -0.00       -0.02

     Writing all to output data dir ./work/Si.save/

     General routines

     Parallel routines

   This run was terminated on:  13:51:36  31May2023

   JOB DONE.